c preprocessed version of kroE100.tsp, 92 vertices, 263 edges
p td 92 263
1 0
72 0
0 71
0 70
0 76
0 75
69 0
1 2
1 73
1 72
1 3
1 76
3 2
73 2
2 84
2 87
4 3
3 5
3 87
3 76
78 3
4 5
4 13
4 34
35 4
37 4
38 4
78 4
6 5
13 5
5 87
7 6
6 88
6 86
6 87
6 12
6 13
7 8
7 82
7 9
7 86
7 88
9 8
8 82
8 16
8 10
9 10
9 88
11 10
15 10
12 10
10 16
10 88
11 12
11 15
11 14
11 13
13 12
12 88
13 14
37 13
15 14
26 14
36 14
37 14
15 16
15 24
15 25
15 26
16 17
16 82
16 24
80 16
18 17
24 17
19 17
17 79
80 17
61 17
18 19
20 18
21 18
18 79
20 19
61 19
59 19
20 21
20 62
59 20
22 21
23 21
21 79
21 62
22 23
22 25
22 62
23 24
23 79
23 25
25 24
24 79
26 25
27 25
25 62
25 58
25 50
26 27
26 30
26 31
36 26
28 27
46 27
27 50
27 30
27 29
27 47
28 29
28 47
28 48
28 32
30 29
32 29
31 29
30 31
32 31
36 31
33 32
48 32
32 34
35 32
36 32
33 34
40 33
33 41
33 48
33 39
38 33
35 34
38 34
35 36
35 37
36 37
38 39
38 68
77 38
38 78
40 39
42 39
39 55
39 54
39 66
40 41
40 42
42 41
48 41
41 49
41 43
42 43
42 53
42 66
44 43
49 43
43 53
44 45
67 44
52 44
44 49
44 53
46 45
67 45
49 45
45 51
45 50
46 47
46 50
46 49
48 47
49 47
48 49
51 50
58 50
63 50
52 51
67 51
51 55
63 51
64 51
52 53
67 52
52 55
52 54
54 53
66 53
54 55
66 54
56 55
60 55
64 55
56 57
60 56
64 56
57 58
59 57
60 57
64 57
65 57
59 58
62 58
63 58
65 58
59 60
61 59
59 62
61 60
63 64
63 65
64 65
69 68
68 75
68 74
77 68
69 70
69 75
69 74
71 70
74 70
72 71
73 72
75 76
77 75
77 76
78 76
77 78
80 81
80 82
82 81
83 81
84 81
83 82
86 82
85 82
83 84
83 85
85 84
86 84
84 87
86 85
86 87
89 2
89 81
89 90
89 73
89 72
89 84
89 91
90 70
90 72
90 71
90 91
90 74
91 80
91 81
91 74
